13 13
9
3 3 10 6
3 4 10 9
3 5 7 0
3 6 10 0
3 7 4 6
3 8 7 5
4 3 0 6
4 4 0 9
7 6 0 0
% time elapsed: 0.10 s
% time elapsed: 0.10 s
%%%mzn-stat: initTime=0.000285
%%%mzn-stat: solveTime=0.001684
%%%mzn-stat: solutions=25
%%%mzn-stat: variables=19
%%%mzn-stat: propagators=14
%%%mzn-stat: propagations=3286
%%%mzn-stat: nodes=432
%%%mzn-stat: failures=138
%%%mzn-stat: restarts=0
%%%mzn-stat: peakDepth=26
%%%mzn-stat-end
